Instance name : SB_bar-n100-6
Authors : 
Date : 
Reference 
Solution
Route 1 : 5 55 12 47 62 97 31 30 81 48 1 51 11 80 9 98 25 59 49 61 50 75 27 77 100 99 
Route 2 : 15 22 65 29 32 34 82 72 79 84 23 73 19 69 13 28 63 78 2 52 46 26 76 96 33 83 
Route 3 : 20 43 93 40 90 18 8 70 16 66 42 68 21 71 17 67 92 35 14 85 64 10 58 60 36 86 
Route 4 : 38 88 41 37 87 91 7 4 57 54 6 44 56 45 3 94 95 53 24 39 89 74 
